Cars = 1..200;
Options = 1..5;
Classes = 1..25;
sequenceMinCapacity = [0, 0, 0, 0, 0];
sequenceMaxCapacity = [1, 2, 1, 2, 1];
sequenceSize = [2, 3, 3, 5, 5];
numOrdered = [1, 2, 40, 1, 1, 1, 1, 7, 1, 5, 29, 1, 56, 1, 5, 5, 2, 6, 13, 3, 1, 4, 2, 2, 10];
classHasOption = [| true,  true,  true,  true, false
                  | true, false, false, false,  true
                  |false, false, false,  true, false
                  | true,  true,  true, false,  true
                  |false,  true, false,  true,  true
                  | true, false,  true,  true,  true
                  | true,  true, false,  true, false
                  |false,  true, false,  true, false
                  |false, false,  true, false,  true
                  | true, false, false,  true, false
                  |false, false,  true, false, false
                  | true,  true,  true, false, false
                  |false,  true, false, false, false
                  |false, false,  true,  true, false
                  | true, false,  true, false, false
                  |false,  true,  true, false, false
                  | true,  true, false, false,  true
                  |false, false, false, false,  true
                  | true, false, false, false, false
                  | true, false, false,  true,  true
                  |false,  true, false, false,  true
                  |false,  true,  true,  true, false
                  |false, false, false,  true,  true
                  |false,  true,  true, false,  true
                  | true,  true, false, false, false|];
optionOrdering = [3, 4, 5, 2, 1];
